p wcnf 116 174 175 
1 42 21 0 
1 -87 -13 0 
1 5 32 0 
1 -9 -3 0 
1 -105 1 0 
1 -38 -14 0 
1 92 42 0 
1 6 91 0 
1 4 -101 0 
1 -33 -116 0 
1 -7 33 0 
1 -112 -113 0 
1 61 -74 0 
1 -5 39 0 
1 80 -90 0 
1 -34 -16 0 
1 99 34 0 
1 96 105 0 
1 -99 -69 0 
1 -15 52 0 
1 113 -25 0 
1 116 108 0 
1 29 -52 0 
1 81 -55 0 
1 106 19 0 
1 -72 -110 0 
1 -96 20 0 
1 -77 55 0 
1 -22 -51 0 
1 64 52 0 
1 -13 107 0 
1 104 43 0 
1 5 -86 0 
1 -90 -31 0 
1 -66 105 0 
1 -101 10 0 
1 68 -39 0 
1 -73 -78 0 
1 19 -12 0 
1 47 114 0 
1 -24 -53 0 
1 -116 29 0 
1 -67 -5 0 
1 50 -27 0 
1 -99 93 0 
1 -77 -44 0 
1 76 42 0 
1 30 -11 0 
1 97 55 0 
1 -52 7 0 
1 58 -63 0 
1 -78 113 0 
1 -8 -23 0 
1 -93 100 0 
1 96 16 0 
1 -35 -112 0 
1 -75 -66 0 
1 11 87 0 
1 7 49 0 
1 -74 27 0 
1 -48 -114 0 
1 102 5 0 
1 -69 -79 0 
1 64 -58 0 
1 -8 92 0 
1 -78 85 0 
1 -5 -76 0 
1 106 -11 0 
1 -47 29 0 
1 26 -43 0 
1 -102 68 0 
1 -61 4 0 
1 -3 99 0 
1 68 -55 0 
1 4 -106 0 
1 66 31 0 
1 -8 -95 0 
1 -77 75 0 
1 39 -52 0 
1 46 -114 0 
1 10 -50 0 
1 -12 98 0 
1 32 76 0 
1 -52 -84 0 
1 5 -38 0 
1 47 18 0 
1 -41 105 0 
1 -109 -30 0 
1 -29 108 0 
1 -20 -74 0 
1 43 -67 0 
1 29 -65 0 
1 -106 19 0 
1 56 10 0 
1 -83 89 0 
1 62 -98 0 
1 -87 83 0 
1 82 -45 0 
1 -47 1 0 
1 -97 3 0 
1 21 19 0 
1 -71 59 0 
1 25 -92 0 
1 -30 93 0 
1 78 85 0 
1 -110 -97 0 
1 76 30 0 
1 80 83 0 
1 57 43 0 
1 -23 -49 0 
1 1 -105 0 
1 -68 -9 0 
1 -27 18 0 
1 -96 112 0 
1 -76 -40 0 
1 110 -104 0 
1 -5 78 0 
1 67 19 0 
1 -22 21 0 
1 -65 101 0 
1 -30 91 0 
1 -24 -11 0 
1 32 -41 0 
1 110 20 0 
1 -115 -26 0 
1 47 -58 0 
1 114 -40 0 
1 -6 52 0 
1 -36 67 0 
1 -1 36 0 
1 -27 53 0 
1 -103 26 0 
1 17 65 0 
1 -44 -72 0 
1 72 -6 0 
1 -97 -66 0 
1 47 96 0 
1 100 -48 0 
1 33 18 0 
1 -43 -45 0 
1 -38 80 0 
1 -94 -15 0 
1 16 37 0 
1 -105 -12 0 
1 4 -107 0 
1 -75 26 0 
1 -52 54 0 
1 -55 -3 0 
1 1 39 0 
1 -22 -12 0 
1 77 98 0 
1 87 -39 0 
1 -86 -8 0 
1 -47 -107 0 
1 -97 9 0 
1 -32 61 0 
1 102 59 0 
1 44 84 0 
1 -102 22 0 
1 98 108 0 
1 -54 -41 0 
1 76 51 0 
1 72 -81 0 
1 15 108 0 
1 -37 -64 0 
1 72 -7 0 
1 -101 -33 0 
1 -36 -3 0 
1 14 -84 0 
1 77 -72 0 
1 28 -51 0 
1 110 8 0 
1 44 -106 0 
1 -63 -40 0 
